QBPP_HJ*_25_025_10_1
25 111 24
18 39 48 5 22 19 15 30 38 34 30 6 50 38 37 18 2 18 13 1 16 5 10 28 12
    0    0    0    0    0    0   43    0    0    0    0  -38  -17    0    0    0    0    0    0  -16    0    0   26    0    0
    0    0    0    0    0   35    0    0    0    0    6    0    0    0    0  -36    0    0    0    0    0    0    7    0    0
    0    0    0    0    0   31    0    0    0   48    0   38    0    0    0   24  -10    0    0   29  -29    0    0    0    0
    0    0    0    0   44  -37    0    0    0    0    0    0    0    0   20    0    0    0   -5    0   46    0    0    0    0
    0    0    0   44    0   13    0    9    8    0    0    0   35    0  -10    0    0   11    0    0    9    0    0    0    0
    0   35   31  -37   13    0  -17   40  -49  -33    0    0    0    0    0    0    0  -48    0   11    0  -45    0   44    0
   43    0    0    0    0  -17    0    0    0    0    0    0    0    0    0    0   21    0    0    0    0    0    0    0    0
    0    0    0    0    9   40    0    0    0    0   48    0   13    0   37    0   -8    0    0    0    0   36    0   50  -31
    0    0    0    0    8  -49    0    0    0    0    0    0    0    0    0    0    0    0    0    0    0    0    0    0    0
    0    0   48    0    0  -33    0    0    0    0    0    0    0    0    0    0  -38    0    0    0   33    0   48    0    0
    0    6    0    0    0    0    0   48    0    0    0  -41    0    0  -31    0    0  -20  -14  -39    0    0    0    0    0
  -38    0   38    0    0    0    0    0    0    0  -41    0  -29    0    0    0   24   16    0    0    0    0    0   41    0
  -17    0    0    0   35    0    0   13    0    0    0  -29    0    0    0    0    0    0    0    0    0    0    0    0    0
    0    0    0    0    0    0    0    0    0    0    0    0    0    0    0   29  -25    0    0    0  -15    0    0   16    0
    0    0    0   20  -10    0    0   37    0    0  -31    0    0    0    0    0   -2    0    0    0    0    0    0    0    0
    0  -36   24    0    0    0    0    0    0    0    0    0    0   29    0    0    0    0    0    0  -16    0    0   -5    0
    0    0  -10    0    0    0   21   -8    0  -38    0   24    0  -25   -2    0    0    0   32    0    0   11  -39    0   -5
    0    0    0    0   11  -48    0    0    0    0  -20   16    0    0    0    0    0    0    0    0    0   13    0    0    0
    0    0    0   -5    0    0    0    0    0    0  -14    0    0    0    0    0   32    0    0    0    0    0   -4   44   -8
  -16    0   29    0    0   11    0    0    0    0  -39    0    0    0    0    0    0    0    0    0    0    0    0    0    0
    0    0  -29   46    9    0    0    0    0   33    0    0    0  -15    0  -16    0    0    0    0    0    0    0    5    0
    0    0    0    0    0  -45    0   36    0    0    0    0    0    0    0    0   11   13    0    0    0    0  -46   39    0
   26    7    0    0    0    0    0    0    0   48    0    0    0    0    0    0  -39    0   -4    0    0  -46    0    0   31
    0    0    0    0    0   44    0   50    0    0    0   41    0   16    0   -5    0    0   44    0    5   39    0    0    0
    0    0    0    0    0    0    0  -31    0    0    0    0    0    0    0    0   -5    0   -8    0    0    0   31    0    0
